% Auto-generated by scripts/generate_dzn.py
% problem_type   = polyominoes
% instance       = polyominoes_16
% source_json    = instances_json/0_low_blowup/polyominoes_16.json
% blowup         = 0.6843657817109144
% representation = DFA

mode = 0;

size = 6;
tiles = 4;
n_expressions = 4;
Q = 87;
S = 5;
q0 = [1, 1, 1, 1];
F = [{18}, {62}, {23}, {38}];
d_dfa = array3d(1..4, 1..87, 1..5, [
  % k = 1
    2, 1, 1, 1, 1,
    3, 23, 23, 23, 23,
    4, 5, 5, 5, 5,
    23, 6, 6, 6, 6,
    23, 7, 7, 7, 7,
    23, 8, 8, 8, 8,
    23, 9, 9, 9, 9,
    23, 10, 10, 10, 10,
    23, 11, 11, 11, 11,
    23, 12, 12, 12, 12,
    23, 13, 13, 13, 13,
    14, 23, 23, 23, 23,
    15, 23, 23, 23, 23,
    16, 23, 23, 23, 23,
    17, 23, 23, 23, 23,
    18, 23, 23, 23, 23,
    23, 19, 19, 19, 19,
    23, 18, 18, 18, 18,
    23, 20, 20, 20, 20,
    23, 21, 21, 21, 21,
    23, 22, 22, 22, 22,
    23, 14, 14, 14, 14,
    23, 23, 23, 23, 23,
    0, 0, 0, 0, 0,
    0, 0, 0, 0, 0,
    0, 0, 0, 0, 0,
    0, 0, 0, 0, 0,
    0, 0, 0, 0, 0,
    0, 0, 0, 0, 0,
    0, 0, 0, 0, 0,
    0, 0, 0, 0, 0,
    0, 0, 0, 0, 0,
    0, 0, 0, 0, 0,
    0, 0, 0, 0, 0,
    0, 0, 0, 0, 0,
    0, 0, 0, 0, 0,
    0, 0, 0, 0, 0,
    0, 0, 0, 0, 0,
    0, 0, 0, 0, 0,
    0, 0, 0, 0, 0,
    0, 0, 0, 0, 0,
    0, 0, 0, 0, 0,
    0, 0, 0, 0, 0,
    0, 0, 0, 0, 0,
    0, 0, 0, 0, 0,
    0, 0, 0, 0, 0,
    0, 0, 0, 0, 0,
    0, 0, 0, 0, 0,
    0, 0, 0, 0, 0,
    0, 0, 0, 0, 0,
    0, 0, 0, 0, 0,
    0, 0, 0, 0, 0,
    0, 0, 0, 0, 0,
    0, 0, 0, 0, 0,
    0, 0, 0, 0, 0,
    0, 0, 0, 0, 0,
    0, 0, 0, 0, 0,
    0, 0, 0, 0, 0,
    0, 0, 0, 0, 0,
    0, 0, 0, 0, 0,
    0, 0, 0, 0, 0,
    0, 0, 0, 0, 0,
    0, 0, 0, 0, 0,
    0, 0, 0, 0, 0,
    0, 0, 0, 0, 0,
    0, 0, 0, 0, 0,
    0, 0, 0, 0, 0,
    0, 0, 0, 0, 0,
    0, 0, 0, 0, 0,
    0, 0, 0, 0, 0,
    0, 0, 0, 0, 0,
    0, 0, 0, 0, 0,
    0, 0, 0, 0, 0,
    0, 0, 0, 0, 0,
    0, 0, 0, 0, 0,
    0, 0, 0, 0, 0,
    0, 0, 0, 0, 0,
    0, 0, 0, 0, 0,
    0, 0, 0, 0, 0,
    0, 0, 0, 0, 0,
    0, 0, 0, 0, 0,
    0, 0, 0, 0, 0,
    0, 0, 0, 0, 0,
    0, 0, 0, 0, 0,
    0, 0, 0, 0, 0,
    0, 0, 0, 0, 0,
    0, 0, 0, 0, 0,

  % k = 2
    1, 2, 1, 1, 1,
    3, 4, 3, 3, 3,
    5, 87, 5, 5, 5,
    6, 7, 6, 6, 6,
    8, 87, 8, 8, 8,
    9, 87, 9, 9, 9,
    10, 11, 10, 10, 10,
    12, 87, 12, 12, 12,
    13, 87, 13, 13, 13,
    14, 87, 14, 14, 14,
    87, 15, 87, 87, 87,
    16, 87, 16, 16, 16,
    17, 87, 17, 17, 17,
    18, 87, 18, 18, 18,
    19, 87, 19, 19, 19,
    20, 87, 20, 20, 20,
    21, 87, 21, 21, 21,
    22, 87, 22, 22, 22,
    23, 87, 23, 23, 23,
    87, 24, 87, 87, 87,
    87, 25, 87, 87, 87,
    87, 26, 87, 87, 87,
    27, 28, 27, 27, 27,
    29, 87, 29, 29, 29,
    87, 30, 87, 87, 87,
    87, 31, 87, 87, 87,
    32, 87, 32, 32, 32,
    87, 33, 87, 87, 87,
    34, 87, 34, 34, 34,
    35, 87, 35, 35, 35,
    87, 36, 87, 87, 87,
    37, 87, 37, 37, 37,
    38, 87, 38, 38, 38,
    39, 87, 39, 39, 39,
    40, 87, 40, 40, 40,
    41, 87, 41, 41, 41,
    87, 28, 87, 87, 87,
    42, 87, 42, 42, 42,
    43, 87, 43, 43, 43,
    44, 45, 44, 44, 44,
    46, 87, 46, 46, 46,
    47, 87, 47, 47, 47,
    48, 87, 48, 48, 48,
    49, 87, 49, 49, 49,
    87, 50, 87, 87, 87,
    51, 87, 51, 51, 51,
    52, 87, 52, 52, 52,
    53, 87, 53, 53, 53,
    54, 87, 54, 54, 54,
    87, 55, 87, 87, 87,
    56, 87, 56, 56, 56,
    55, 87, 55, 55, 55,
    87, 57, 87, 87, 87,
    87, 45, 87, 87, 87,
    87, 58, 87, 87, 87,
    59, 60, 59, 59, 59,
    61, 87, 61, 61, 61,
    87, 62, 87, 87, 87,
    63, 87, 63, 63, 63,
    64, 87, 64, 64, 64,
    65, 87, 65, 65, 65,
    62, 87, 62, 62, 62,
    87, 60, 87, 87, 87,
    66, 87, 66, 66, 66,
    67, 87, 67, 67, 67,
    68, 87, 68, 68, 68,
    69, 87, 69, 69, 69,
    70, 87, 70, 70, 70,
    71, 72, 71, 71, 71,
    73, 87, 73, 73, 73,
    74, 87, 74, 74, 74,
    87, 75, 87, 87, 87,
    76, 87, 76, 76, 76,
    87, 72, 87, 87, 87,
    87, 77, 87, 87, 87,
    87, 78, 87, 87, 87,
    79, 87, 79, 79, 79,
    80, 87, 80, 80, 80,
    81, 87, 81, 81, 81,
    82, 87, 82, 82, 82,
    83, 87, 83, 83, 83,
    84, 87, 84, 84, 84,
    50, 87, 50, 50, 50,
    85, 87, 85, 85, 85,
    86, 87, 86, 86, 86,
    58, 87, 58, 58, 58,
    87, 87, 87, 87, 87,

  % k = 3
    1, 1, 2, 1, 1,
    39, 39, 3, 39, 39,
    4, 4, 5, 4, 4,
    6, 6, 39, 6, 6,
    39, 39, 7, 39, 39,
    8, 8, 39, 8, 8,
    39, 39, 9, 39, 39,
    10, 10, 39, 10, 10,
    11, 11, 39, 11, 11,
    12, 12, 39, 12, 12,
    13, 13, 39, 13, 13,
    39, 39, 14, 39, 39,
    39, 39, 15, 39, 39,
    39, 39, 16, 39, 39,
    39, 39, 17, 39, 39,
    18, 18, 39, 18, 18,
    39, 39, 19, 39, 39,
    20, 20, 39, 20, 20,
    39, 39, 21, 39, 39,
    22, 22, 39, 22, 22,
    39, 39, 23, 39, 39,
    24, 24, 39, 24, 24,
    23, 23, 39, 23, 23,
    25, 25, 39, 25, 25,
    39, 39, 26, 39, 39,
    39, 39, 27, 39, 39,
    28, 28, 39, 28, 28,
    29, 29, 39, 29, 29,
    30, 30, 39, 30, 30,
    31, 31, 39, 31, 31,
    32, 32, 39, 32, 32,
    39, 39, 33, 39, 39,
    39, 39, 34, 39, 39,
    35, 35, 39, 35, 35,
    36, 36, 39, 36, 36,
    37, 37, 39, 37, 37,
    38, 38, 39, 38, 38,
    19, 19, 39, 19, 19,
    39, 39, 39, 39, 39,
    0, 0, 0, 0, 0,
    0, 0, 0, 0, 0,
    0, 0, 0, 0, 0,
    0, 0, 0, 0, 0,
    0, 0, 0, 0, 0,
    0, 0, 0, 0, 0,
    0, 0, 0, 0, 0,
    0, 0, 0, 0, 0,
    0, 0, 0, 0, 0,
    0, 0, 0, 0, 0,
    0, 0, 0, 0, 0,
    0, 0, 0, 0, 0,
    0, 0, 0, 0, 0,
    0, 0, 0, 0, 0,
    0, 0, 0, 0, 0,
    0, 0, 0, 0, 0,
    0, 0, 0, 0, 0,
    0, 0, 0, 0, 0,
    0, 0, 0, 0, 0,
    0, 0, 0, 0, 0,
    0, 0, 0, 0, 0,
    0, 0, 0, 0, 0,
    0, 0, 0, 0, 0,
    0, 0, 0, 0, 0,
    0, 0, 0, 0, 0,
    0, 0, 0, 0, 0,
    0, 0, 0, 0, 0,
    0, 0, 0, 0, 0,
    0, 0, 0, 0, 0,
    0, 0, 0, 0, 0,
    0, 0, 0, 0, 0,
    0, 0, 0, 0, 0,
    0, 0, 0, 0, 0,
    0, 0, 0, 0, 0,
    0, 0, 0, 0, 0,
    0, 0, 0, 0, 0,
    0, 0, 0, 0, 0,
    0, 0, 0, 0, 0,
    0, 0, 0, 0, 0,
    0, 0, 0, 0, 0,
    0, 0, 0, 0, 0,
    0, 0, 0, 0, 0,
    0, 0, 0, 0, 0,
    0, 0, 0, 0, 0,
    0, 0, 0, 0, 0,
    0, 0, 0, 0, 0,
    0, 0, 0, 0, 0,
    0, 0, 0, 0, 0,

  % k = 4
    1, 1, 1, 2, 1,
    3, 3, 3, 4, 3,
    5, 5, 5, 83, 5,
    6, 6, 6, 7, 6,
    8, 8, 8, 83, 8,
    9, 9, 9, 83, 9,
    83, 83, 83, 10, 83,
    11, 11, 11, 83, 11,
    12, 12, 12, 83, 12,
    83, 83, 83, 13, 83,
    14, 14, 14, 83, 14,
    15, 15, 15, 83, 15,
    16, 16, 16, 17, 16,
    18, 18, 18, 19, 18,
    20, 20, 20, 83, 20,
    21, 21, 21, 22, 21,
    23, 23, 23, 83, 23,
    83, 83, 83, 19, 83,
    83, 83, 83, 24, 83,
    83, 83, 83, 25, 83,
    83, 83, 83, 22, 83,
    83, 83, 83, 26, 83,
    22, 22, 22, 26, 22,
    27, 27, 27, 83, 27,
    83, 83, 83, 28, 83,
    83, 83, 83, 29, 83,
    30, 30, 30, 83, 30,
    31, 31, 31, 83, 31,
    83, 83, 83, 32, 83,
    33, 33, 33, 83, 33,
    34, 34, 34, 83, 34,
    83, 83, 83, 35, 83,
    36, 36, 36, 83, 36,
    37, 37, 37, 83, 37,
    83, 83, 83, 38, 83,
    39, 39, 39, 83, 39,
    40, 40, 40, 83, 40,
    38, 38, 38, 83, 38,
    83, 83, 83, 41, 83,
    42, 42, 42, 83, 42,
    83, 83, 83, 43, 83,
    83, 83, 83, 44, 83,
    45, 45, 45, 83, 45,
    83, 83, 83, 46, 83,
    47, 47, 47, 83, 47,
    48, 48, 48, 83, 48,
    49, 49, 49, 83, 49,
    50, 50, 50, 83, 50,
    51, 51, 51, 83, 51,
    52, 52, 52, 83, 52,
    53, 53, 53, 83, 53,
    54, 54, 54, 83, 54,
    83, 83, 83, 55, 83,
    56, 56, 56, 83, 56,
    83, 83, 83, 57, 83,
    83, 83, 83, 58, 83,
    59, 59, 59, 83, 59,
    83, 83, 83, 60, 83,
    61, 61, 61, 83, 61,
    62, 62, 62, 83, 62,
    63, 63, 63, 83, 63,
    64, 64, 64, 83, 64,
    65, 65, 65, 83, 65,
    66, 66, 66, 83, 66,
    67, 67, 67, 83, 67,
    68, 68, 68, 83, 68,
    83, 83, 83, 69, 83,
    70, 70, 70, 83, 70,
    83, 83, 83, 71, 83,
    83, 83, 83, 72, 83,
    73, 73, 73, 83, 73,
    83, 83, 83, 74, 83,
    75, 75, 75, 83, 75,
    76, 76, 76, 83, 76,
    77, 77, 77, 83, 77,
    78, 78, 78, 83, 78,
    79, 79, 79, 83, 79,
    80, 80, 80, 83, 80,
    32, 32, 32, 83, 32,
    81, 81, 81, 83, 81,
    82, 82, 82, 83, 82,
    35, 35, 35, 38, 35,
    83, 83, 83, 83, 83,
    0, 0, 0, 0, 0,
    0, 0, 0, 0, 0,
    0, 0, 0, 0, 0,
    0, 0, 0, 0, 0
]);
d_nfa = array3d(1..4, 1..87, 1..5, [
  % k = 1
    {}, {}, {}, {}, {},
    {}, {}, {}, {}, {},
    {}, {}, {}, {}, {},
    {}, {}, {}, {}, {},
    {}, {}, {}, {}, {},
    {}, {}, {}, {}, {},
    {}, {}, {}, {}, {},
    {}, {}, {}, {}, {},
    {}, {}, {}, {}, {},
    {}, {}, {}, {}, {},
    {}, {}, {}, {}, {},
    {}, {}, {}, {}, {},
    {}, {}, {}, {}, {},
    {}, {}, {}, {}, {},
    {}, {}, {}, {}, {},
    {}, {}, {}, {}, {},
    {}, {}, {}, {}, {},
    {}, {}, {}, {}, {},
    {}, {}, {}, {}, {},
    {}, {}, {}, {}, {},
    {}, {}, {}, {}, {},
    {}, {}, {}, {}, {},
    {}, {}, {}, {}, {},
    {}, {}, {}, {}, {},
    {}, {}, {}, {}, {},
    {}, {}, {}, {}, {},
    {}, {}, {}, {}, {},
    {}, {}, {}, {}, {},
    {}, {}, {}, {}, {},
    {}, {}, {}, {}, {},
    {}, {}, {}, {}, {},
    {}, {}, {}, {}, {},
    {}, {}, {}, {}, {},
    {}, {}, {}, {}, {},
    {}, {}, {}, {}, {},
    {}, {}, {}, {}, {},
    {}, {}, {}, {}, {},
    {}, {}, {}, {}, {},
    {}, {}, {}, {}, {},
    {}, {}, {}, {}, {},
    {}, {}, {}, {}, {},
    {}, {}, {}, {}, {},
    {}, {}, {}, {}, {},
    {}, {}, {}, {}, {},
    {}, {}, {}, {}, {},
    {}, {}, {}, {}, {},
    {}, {}, {}, {}, {},
    {}, {}, {}, {}, {},
    {}, {}, {}, {}, {},
    {}, {}, {}, {}, {},
    {}, {}, {}, {}, {},
    {}, {}, {}, {}, {},
    {}, {}, {}, {}, {},
    {}, {}, {}, {}, {},
    {}, {}, {}, {}, {},
    {}, {}, {}, {}, {},
    {}, {}, {}, {}, {},
    {}, {}, {}, {}, {},
    {}, {}, {}, {}, {},
    {}, {}, {}, {}, {},
    {}, {}, {}, {}, {},
    {}, {}, {}, {}, {},
    {}, {}, {}, {}, {},
    {}, {}, {}, {}, {},
    {}, {}, {}, {}, {},
    {}, {}, {}, {}, {},
    {}, {}, {}, {}, {},
    {}, {}, {}, {}, {},
    {}, {}, {}, {}, {},
    {}, {}, {}, {}, {},
    {}, {}, {}, {}, {},
    {}, {}, {}, {}, {},
    {}, {}, {}, {}, {},
    {}, {}, {}, {}, {},
    {}, {}, {}, {}, {},
    {}, {}, {}, {}, {},
    {}, {}, {}, {}, {},
    {}, {}, {}, {}, {},
    {}, {}, {}, {}, {},
    {}, {}, {}, {}, {},
    {}, {}, {}, {}, {},
    {}, {}, {}, {}, {},
    {}, {}, {}, {}, {},
    {}, {}, {}, {}, {},
    {}, {}, {}, {}, {},
    {}, {}, {}, {}, {},
    {}, {}, {}, {}, {},

  % k = 2
    {}, {}, {}, {}, {},
    {}, {}, {}, {}, {},
    {}, {}, {}, {}, {},
    {}, {}, {}, {}, {},
    {}, {}, {}, {}, {},
    {}, {}, {}, {}, {},
    {}, {}, {}, {}, {},
    {}, {}, {}, {}, {},
    {}, {}, {}, {}, {},
    {}, {}, {}, {}, {},
    {}, {}, {}, {}, {},
    {}, {}, {}, {}, {},
    {}, {}, {}, {}, {},
    {}, {}, {}, {}, {},
    {}, {}, {}, {}, {},
    {}, {}, {}, {}, {},
    {}, {}, {}, {}, {},
    {}, {}, {}, {}, {},
    {}, {}, {}, {}, {},
    {}, {}, {}, {}, {},
    {}, {}, {}, {}, {},
    {}, {}, {}, {}, {},
    {}, {}, {}, {}, {},
    {}, {}, {}, {}, {},
    {}, {}, {}, {}, {},
    {}, {}, {}, {}, {},
    {}, {}, {}, {}, {},
    {}, {}, {}, {}, {},
    {}, {}, {}, {}, {},
    {}, {}, {}, {}, {},
    {}, {}, {}, {}, {},
    {}, {}, {}, {}, {},
    {}, {}, {}, {}, {},
    {}, {}, {}, {}, {},
    {}, {}, {}, {}, {},
    {}, {}, {}, {}, {},
    {}, {}, {}, {}, {},
    {}, {}, {}, {}, {},
    {}, {}, {}, {}, {},
    {}, {}, {}, {}, {},
    {}, {}, {}, {}, {},
    {}, {}, {}, {}, {},
    {}, {}, {}, {}, {},
    {}, {}, {}, {}, {},
    {}, {}, {}, {}, {},
    {}, {}, {}, {}, {},
    {}, {}, {}, {}, {},
    {}, {}, {}, {}, {},
    {}, {}, {}, {}, {},
    {}, {}, {}, {}, {},
    {}, {}, {}, {}, {},
    {}, {}, {}, {}, {},
    {}, {}, {}, {}, {},
    {}, {}, {}, {}, {},
    {}, {}, {}, {}, {},
    {}, {}, {}, {}, {},
    {}, {}, {}, {}, {},
    {}, {}, {}, {}, {},
    {}, {}, {}, {}, {},
    {}, {}, {}, {}, {},
    {}, {}, {}, {}, {},
    {}, {}, {}, {}, {},
    {}, {}, {}, {}, {},
    {}, {}, {}, {}, {},
    {}, {}, {}, {}, {},
    {}, {}, {}, {}, {},
    {}, {}, {}, {}, {},
    {}, {}, {}, {}, {},
    {}, {}, {}, {}, {},
    {}, {}, {}, {}, {},
    {}, {}, {}, {}, {},
    {}, {}, {}, {}, {},
    {}, {}, {}, {}, {},
    {}, {}, {}, {}, {},
    {}, {}, {}, {}, {},
    {}, {}, {}, {}, {},
    {}, {}, {}, {}, {},
    {}, {}, {}, {}, {},
    {}, {}, {}, {}, {},
    {}, {}, {}, {}, {},
    {}, {}, {}, {}, {},
    {}, {}, {}, {}, {},
    {}, {}, {}, {}, {},
    {}, {}, {}, {}, {},
    {}, {}, {}, {}, {},
    {}, {}, {}, {}, {},
    {}, {}, {}, {}, {},

  % k = 3
    {}, {}, {}, {}, {},
    {}, {}, {}, {}, {},
    {}, {}, {}, {}, {},
    {}, {}, {}, {}, {},
    {}, {}, {}, {}, {},
    {}, {}, {}, {}, {},
    {}, {}, {}, {}, {},
    {}, {}, {}, {}, {},
    {}, {}, {}, {}, {},
    {}, {}, {}, {}, {},
    {}, {}, {}, {}, {},
    {}, {}, {}, {}, {},
    {}, {}, {}, {}, {},
    {}, {}, {}, {}, {},
    {}, {}, {}, {}, {},
    {}, {}, {}, {}, {},
    {}, {}, {}, {}, {},
    {}, {}, {}, {}, {},
    {}, {}, {}, {}, {},
    {}, {}, {}, {}, {},
    {}, {}, {}, {}, {},
    {}, {}, {}, {}, {},
    {}, {}, {}, {}, {},
    {}, {}, {}, {}, {},
    {}, {}, {}, {}, {},
    {}, {}, {}, {}, {},
    {}, {}, {}, {}, {},
    {}, {}, {}, {}, {},
    {}, {}, {}, {}, {},
    {}, {}, {}, {}, {},
    {}, {}, {}, {}, {},
    {}, {}, {}, {}, {},
    {}, {}, {}, {}, {},
    {}, {}, {}, {}, {},
    {}, {}, {}, {}, {},
    {}, {}, {}, {}, {},
    {}, {}, {}, {}, {},
    {}, {}, {}, {}, {},
    {}, {}, {}, {}, {},
    {}, {}, {}, {}, {},
    {}, {}, {}, {}, {},
    {}, {}, {}, {}, {},
    {}, {}, {}, {}, {},
    {}, {}, {}, {}, {},
    {}, {}, {}, {}, {},
    {}, {}, {}, {}, {},
    {}, {}, {}, {}, {},
    {}, {}, {}, {}, {},
    {}, {}, {}, {}, {},
    {}, {}, {}, {}, {},
    {}, {}, {}, {}, {},
    {}, {}, {}, {}, {},
    {}, {}, {}, {}, {},
    {}, {}, {}, {}, {},
    {}, {}, {}, {}, {},
    {}, {}, {}, {}, {},
    {}, {}, {}, {}, {},
    {}, {}, {}, {}, {},
    {}, {}, {}, {}, {},
    {}, {}, {}, {}, {},
    {}, {}, {}, {}, {},
    {}, {}, {}, {}, {},
    {}, {}, {}, {}, {},
    {}, {}, {}, {}, {},
    {}, {}, {}, {}, {},
    {}, {}, {}, {}, {},
    {}, {}, {}, {}, {},
    {}, {}, {}, {}, {},
    {}, {}, {}, {}, {},
    {}, {}, {}, {}, {},
    {}, {}, {}, {}, {},
    {}, {}, {}, {}, {},
    {}, {}, {}, {}, {},
    {}, {}, {}, {}, {},
    {}, {}, {}, {}, {},
    {}, {}, {}, {}, {},
    {}, {}, {}, {}, {},
    {}, {}, {}, {}, {},
    {}, {}, {}, {}, {},
    {}, {}, {}, {}, {},
    {}, {}, {}, {}, {},
    {}, {}, {}, {}, {},
    {}, {}, {}, {}, {},
    {}, {}, {}, {}, {},
    {}, {}, {}, {}, {},
    {}, {}, {}, {}, {},
    {}, {}, {}, {}, {},

  % k = 4
    {}, {}, {}, {}, {},
    {}, {}, {}, {}, {},
    {}, {}, {}, {}, {},
    {}, {}, {}, {}, {},
    {}, {}, {}, {}, {},
    {}, {}, {}, {}, {},
    {}, {}, {}, {}, {},
    {}, {}, {}, {}, {},
    {}, {}, {}, {}, {},
    {}, {}, {}, {}, {},
    {}, {}, {}, {}, {},
    {}, {}, {}, {}, {},
    {}, {}, {}, {}, {},
    {}, {}, {}, {}, {},
    {}, {}, {}, {}, {},
    {}, {}, {}, {}, {},
    {}, {}, {}, {}, {},
    {}, {}, {}, {}, {},
    {}, {}, {}, {}, {},
    {}, {}, {}, {}, {},
    {}, {}, {}, {}, {},
    {}, {}, {}, {}, {},
    {}, {}, {}, {}, {},
    {}, {}, {}, {}, {},
    {}, {}, {}, {}, {},
    {}, {}, {}, {}, {},
    {}, {}, {}, {}, {},
    {}, {}, {}, {}, {},
    {}, {}, {}, {}, {},
    {}, {}, {}, {}, {},
    {}, {}, {}, {}, {},
    {}, {}, {}, {}, {},
    {}, {}, {}, {}, {},
    {}, {}, {}, {}, {},
    {}, {}, {}, {}, {},
    {}, {}, {}, {}, {},
    {}, {}, {}, {}, {},
    {}, {}, {}, {}, {},
    {}, {}, {}, {}, {},
    {}, {}, {}, {}, {},
    {}, {}, {}, {}, {},
    {}, {}, {}, {}, {},
    {}, {}, {}, {}, {},
    {}, {}, {}, {}, {},
    {}, {}, {}, {}, {},
    {}, {}, {}, {}, {},
    {}, {}, {}, {}, {},
    {}, {}, {}, {}, {},
    {}, {}, {}, {}, {},
    {}, {}, {}, {}, {},
    {}, {}, {}, {}, {},
    {}, {}, {}, {}, {},
    {}, {}, {}, {}, {},
    {}, {}, {}, {}, {},
    {}, {}, {}, {}, {},
    {}, {}, {}, {}, {},
    {}, {}, {}, {}, {},
    {}, {}, {}, {}, {},
    {}, {}, {}, {}, {},
    {}, {}, {}, {}, {},
    {}, {}, {}, {}, {},
    {}, {}, {}, {}, {},
    {}, {}, {}, {}, {},
    {}, {}, {}, {}, {},
    {}, {}, {}, {}, {},
    {}, {}, {}, {}, {},
    {}, {}, {}, {}, {},
    {}, {}, {}, {}, {},
    {}, {}, {}, {}, {},
    {}, {}, {}, {}, {},
    {}, {}, {}, {}, {},
    {}, {}, {}, {}, {},
    {}, {}, {}, {}, {},
    {}, {}, {}, {}, {},
    {}, {}, {}, {}, {},
    {}, {}, {}, {}, {},
    {}, {}, {}, {}, {},
    {}, {}, {}, {}, {},
    {}, {}, {}, {}, {},
    {}, {}, {}, {}, {},
    {}, {}, {}, {}, {},
    {}, {}, {}, {}, {},
    {}, {}, {}, {}, {},
    {}, {}, {}, {}, {},
    {}, {}, {}, {}, {},
    {}, {}, {}, {}, {},
    {}, {}, {}, {}, {}
]);
